92 95 50 33 32 34 31 29 27 26 28 30 62 67 94 93 71 96 
65 83 24 23 21 48 18 19 49 20 22 66 
42 44 40 35 37 72 54 81 
90 82 11 15 9 10 13 16 17 47 14 12 
88 60 78 73 79 7 6 8 46 4 2 55 100 70 
45 5 3 1 43 36 39 38 41 61 68 
69 98 53 99 52 86 87 74 59 97 75 58 77 25 57 
64 51 76 89 63 85 84 56 91 80 
